n_res = 4;
rcap = [13, 17, 45, 51];
rtype = [1, 1, 2, 2];
n_tasks = 14;
modes = [ {1, 2, 3}, {4, 5, 6}, {7, 8, 9}, {10, 11, 12}, {13, 14, 15}, {16, 17, 18}, {19, 20, 21}, {22, 23, 24}, {25, 26, 27}, {28, 29, 30}, {31, 32, 33}, {34, 35, 36}, {37, 38, 39}, {40, 41, 42} ];
succ = [ {12, 13}, {4, 11}, {4, 6, 7}, {5, 8, 14}, {10}, {8, 9, 14}, {11, 12, 14}, {10}, {10, 11}, {12, 13}, {13}, {}, {}, {} ];
n_opt = 42;
dur = [6, 6, 10, 2, 7, 8, 2, 7, 9, 2, 4, 9, 5, 5, 7, 2, 3, 4, 2, 3, 10, 1, 7, 10, 5, 7, 10, 4, 7, 9, 1, 6, 8, 7, 8, 9, 5, 10, 10, 2, 2, 6];
rreq = [|  6,  6,  5,  8,  7,  7,  6,  6,  5,  6,  5,  5,  7,  6,  5, 10,  6,  3,  2,  1,  1,  6,  5,  5,  2,  2,  2,  5,  3,  3,  7,  6,  3,  9,  7,  4,  6,  5,  3,  8,  8,  8
        |  6,  7,  5, 10, 10, 10,  5,  4,  1,  9,  8,  8,  9,  9,  9,  4,  3,  3,  8,  7,  6,  7,  6,  6,  7,  5,  3,  3,  3,  2,  6,  5,  4, 10,  7,  2,  7,  4,  5,  6,  7,  4
        |  7,  0,  0,  1,  0,  0,  6,  3,  0,  7,  3,  0,  0,  7,  0,  0,  0,  0,  7,  0,  4,  5,  0,  0,  2,  0,  0,  0,  0,  0,  0,  3,  0,  0,  1,  0,  7,  3,  6,  0,  0,  6
        |  0,  7,  5,  0, 10,  3,  0,  0,  5,  0,  0,  2,  6,  0,  7,  2,  2,  1,  0,  7,  0,  0,  4,  1,  0,  6,  5,  7,  7,  7,  1,  0,  1,  4,  0,  3,  0,  0,  0,  3,  2,  0 |];
